(set-info :smt-lib-version 2.6)
(set-logic QF_ALIA)
(set-info :notes "Adapted for Array Sum evaluation.
Base file: qlock.induction.8.smt2")
(set-info :source |
Unbounded version of the queue lock algorithm.
|)
(set-info :category "industrial")
(declare-fun x_0 () (Array Int Int))
(declare-fun x_1 () Int)
(declare-fun x_2 () Int)
(declare-fun x_3 () (Array Int Int))
(declare-fun x_4 () (Array Int Int))
(declare-fun x_5 () (Array Int Int))
(declare-fun x_6 () (Array Int Int))
(declare-fun x_7 () (Array Int Int))
(declare-fun x_8 () (Array Int Int))
(declare-fun x_9 () (Array Int Int))
(declare-fun x_10 () (Array Int Int))
(declare-fun x_11 () Int)
(declare-fun x_12 () Int)
(declare-fun x_13 () (Array Int Int))
(declare-fun x_14 () Int)
(declare-fun x_15 () Bool)
(declare-fun x_16 () Bool)
(declare-fun x_17 () Int)
(declare-fun x_18 () Int)
(declare-fun x_19 () Int)
(declare-fun x_20 () Int)
(declare-fun x_21 () Int)
(declare-fun x_22 () Int)
(declare-fun x_23 () Int)
(declare-fun x_24 () Int)
(declare-fun x_25 () Int)
(declare-fun x_26 () Int)
(declare-fun x_27 () Int)
(declare-fun x_28 () Int)
(declare-fun x_29 () (Array Int Int))
(declare-fun x_30 () Int)
(declare-fun x_31 () Bool)
(declare-fun x_32 () Int)
(declare-fun x_33 () Int)
(declare-fun x_34 () Int)
(declare-fun x_35 () Int)
(declare-fun x_36 () Int)
(declare-fun x_37 () Int)
(declare-fun x_38 () Int)
(declare-fun x_39 () Int)
(declare-fun x_40 () Int)
(declare-fun x_41 () Int)
(declare-fun x_42 () (Array Int Int))
(declare-fun x_43 () Int)
(declare-fun x_44 () Bool)
(declare-fun x_45 () Int)
(declare-fun x_46 () Int)
(declare-fun x_47 () Int)
(declare-fun x_48 () Int)
(declare-fun x_49 () Int)
(declare-fun x_50 () Int)
(declare-fun x_51 () Int)
(declare-fun x_52 () Int)
(declare-fun x_53 () Int)
(declare-fun x_54 () Int)
(declare-fun x_55 () (Array Int Int))
(declare-fun x_56 () Int)
(declare-fun x_57 () Bool)
(declare-fun x_58 () Int)
(declare-fun x_59 () Int)
(declare-fun x_60 () Int)
(declare-fun x_61 () Int)
(declare-fun x_62 () Int)
(declare-fun x_63 () Int)
(declare-fun x_64 () Int)
(declare-fun x_65 () Int)
(declare-fun x_66 () Int)
(declare-fun x_67 () Int)
(declare-fun x_68 () (Array Int Int))
(declare-fun x_69 () Int)
(declare-fun x_70 () Bool)
(declare-fun x_71 () Int)
(declare-fun x_72 () Int)
(declare-fun x_73 () Int)
(declare-fun x_74 () Int)
(declare-fun x_75 () Int)
(declare-fun x_76 () Int)
(declare-fun x_77 () Int)
(declare-fun x_78 () Int)
(declare-fun x_79 () Int)
(declare-fun x_80 () Int)
(declare-fun x_81 () (Array Int Int))
(declare-fun x_82 () Int)
(declare-fun x_83 () Bool)
(declare-fun x_84 () Int)
(declare-fun x_85 () Int)
(declare-fun x_86 () Int)
(declare-fun x_87 () Int)
(declare-fun x_88 () Int)
(declare-fun x_89 () Int)
(declare-fun x_90 () Int)
(declare-fun x_91 () Int)
(declare-fun x_92 () Int)
(declare-fun x_93 () Int)
(declare-fun x_94 () (Array Int Int))
(declare-fun x_95 () Int)
(declare-fun x_96 () Bool)
(declare-fun x_97 () Int)
(declare-fun x_98 () Int)
(declare-fun x_99 () Int)
(declare-fun x_100 () Int)
(declare-fun x_101 () Int)
(declare-fun x_102 () Int)
(declare-fun x_103 () Int)
(declare-fun x_104 () Int)
(declare-fun x_105 () Int)
(declare-fun x_106 () Int)
(declare-fun x_107 () (Array Int Int))
(declare-fun x_108 () Int)
(declare-fun x_109 () Bool)
(declare-fun x_110 () Int)
(declare-fun x_111 () Int)
(declare-fun x_112 () Int)
(declare-fun x_113 () Int)
(declare-fun x_114 () Int)
(declare-fun x_115 () (Array Int Int))
(declare-fun x_116 () Int)
(declare-fun x_117 () Int)
(declare-fun x_118 () Int)
(declare-fun x_119 () Int)
(declare-fun x_120 () Int)
(declare-fun x_121 () Int)
(declare-fun x_122 () Int)
(declare-fun x_123 () Int)
(declare-fun x_124 () Int)
(declare-fun x_125 () Int)
(declare-fun x_126 () Int)
(declare-fun x_127 () Int)
(declare-fun x_128 () Int)
(declare-fun x_129 () Int)
(declare-fun x_130 () Int)
(declare-fun x_131 () Int)
(declare-fun x_132 () Int)
(declare-fun x_133 () Int)
(declare-fun x_134 () Int)
(declare-fun x_135 () Int)
(declare-fun x_136 () Int)
(declare-fun x_137 () Int)
(declare-fun x_138 () Int)
(declare-fun x_139 () Int)
(declare-fun x_140 () Int)
(declare-fun x_141 () Int)
(declare-fun x_142 () Int)
(declare-fun x_143 () Int)
(declare-fun x_144 () Int)
(declare-fun x_145 () Int)
(declare-fun x_146 () Int)
(declare-fun x_147 () Int)
(declare-fun x_148 () Int)
(declare-fun x_149 () Int)
(declare-fun x_150 () Int)
(declare-fun x_151 () Int)
(declare-fun x_152 () Int)
(declare-fun x_153 () Int)
(declare-fun x_154 () Int)
(declare-fun x_155 () Int)
(declare-fun x_156 () Int)
(declare-fun x_157 () Int)
(declare-fun x_158 () Int)
(declare-fun x_159 () Int)
(declare-fun x_160 () Int)
(declare-fun x_161 () Int)
(declare-fun x_162 () Int)
(declare-fun x_163 () Int)
(declare-fun x_164 () Int)
(declare-fun x_165 () Int)
(declare-fun x_166 () Int)
(declare-fun x_167 () Int)
(declare-fun x_168 () Int)
(declare-fun x_169 () Int)
(assert (let ((?v_38 (= x_13 x_10)) (?v_35 (= x_14 x_11)) (?v_36 (= x_15 x_16)) (?v_39 (= x_17 x_18)) (?v_37 (not (<= x_18 x_11))) (?v_33 (= x_29 x_13)) (?v_30 (= x_30 x_14)) (?v_31 (= x_31 x_15)) (?v_34 (= x_32 x_17)) (?v_32 (not (<= x_17 x_14))) (?v_28 (= x_42 x_29)) (?v_25 (= x_43 x_30)) (?v_26 (= x_44 x_31)) (?v_29 (= x_45 x_32)) (?v_27 (not (<= x_32 x_30))) (?v_23 (= x_55 x_42)) (?v_20 (= x_56 x_43)) (?v_21 (= x_57 x_44)) (?v_24 (= x_58 x_45)) (?v_22 (not (<= x_45 x_43))) (?v_18 (= x_68 x_55)) (?v_15 (= x_69 x_56)) (?v_16 (= x_70 x_57)) (?v_19 (= x_71 x_58)) (?v_17 (not (<= x_58 x_56))) (?v_13 (= x_81 x_68)) (?v_10 (= x_82 x_69)) (?v_11 (= x_83 x_70)) (?v_14 (= x_84 x_71)) (?v_12 (not (<= x_71 x_69))) (?v_8 (= x_94 x_81)) (?v_5 (= x_95 x_82)) (?v_6 (= x_96 x_83)) (?v_9 (= x_97 x_84)) (?v_7 (not (<= x_84 x_82))) (?v_3 (= x_107 x_94)) (?v_0 (= x_108 x_95)) (?v_1 (= x_109 x_96)) (?v_4 (= x_110 x_97)) (?v_2 (not (<= x_97 x_95)))) (and (and (and (and (and (and (and (and (and (and (and (and (and (and (and (and (and (and (and (and (and (and (and (and (and (and (and (and (and (and (and (and (and (and (and (and (and (and (and (and (and (and (and (and (and (and (and (and (and (and (and (and (and (and (and (and (and (and (and (and (and (and (and (and (and (and (and (and (and (and (and (and (and (and (and (and (and (and (and (and (and (and (and (and (not (= x_2 x_1)) (= x_120 (select x_9 x_1))) (= x_121 (select x_9 x_2))) (or (not (= x_120 3)) (not (= x_121 3)))) (= x_122 (select x_8 x_1))) (= x_123 (select x_8 x_2))) (or (not (= x_122 3)) (not (= x_123 3)))) (= x_124 (select x_7 x_1))) (= x_125 (select x_7 x_2))) (or (not (= x_124 3)) (not (= x_125 3)))) (= x_126 (select x_6 x_1))) (= x_127 (select x_6 x_2))) (or (not (= x_126 3)) (not (= x_127 3)))) (= x_128 (select x_5 x_1))) (= x_129 (select x_5 x_2))) (or (not (= x_128 3)) (not (= x_129 3)))) (= x_130 (select x_4 x_1))) (= x_131 (select x_4 x_2))) (or (not (= x_130 3)) (not (= x_131 3)))) (= x_132 (select x_3 x_1))) (= x_133 (select x_3 x_2))) (or (not (= x_132 3)) (not (= x_133 3)))) (= x_134 (select x_0 x_1))) (= x_135 (select x_0 x_2))) (or (not (= x_134 3)) (not (= x_135 3)))) (= x_136 (select x_10 x_11))) (= x_12 x_136)) (= x_137 (select x_13 x_14))) (= x_28 x_137)) (= x_138 (select x_29 x_30))) (= x_41 x_138)) (= x_139 (select x_42 x_43))) (= x_54 x_139)) (= x_140 (select x_55 x_56))) (= x_67 x_140)) (= x_141 (select x_68 x_69))) (= x_80 x_141)) (= x_142 (select x_81 x_82))) (= x_93 x_142)) (= x_143 (select x_94 x_95))) (= x_106 x_143)) (= x_111 (+ x_98 1))) (= x_144 (select x_9 x_113))) (= x_145 (select x_9 x_116))) (= x_146 (select x_9 x_118))) (or (or (or (and (and (and (and (and (and (and (= x_112 0) (= x_110 (+ x_97 1))) ?v_0) ?v_1) (= x_114 x_113)) (= x_144 1)) (= x_115 (store x_9 x_113 2))) (= x_107 (store x_94 x_97 x_113))) (and (and (and (and (and (and (and (and (and (= x_112 1) ?v_2) ?v_0) ?v_1) ?v_3) ?v_4) (= x_117 x_116)) (= x_145 2)) (= x_106 x_116)) (= x_115 (store x_9 x_116 3)))) (and (and (and (and (and (and (and (and (and (= x_112 2) ?v_2) (= x_108 (+ x_95 1))) ?v_1) ?v_3) ?v_4) (= x_119 x_118)) (= x_146 3)) (or (not (<= x_98 12)) (= x_106 x_118))) (= x_115 (store x_9 x_118 1)))) (and (and (and (and (and (= x_112 3) ?v_3) ?v_0) ?v_1) (= x_115 x_9)) ?v_4))) (= x_98 (+ x_85 1))) (= x_147 (select x_8 x_100))) (= x_148 (select x_8 x_102))) (= x_149 (select x_8 x_104))) (or (or (or (and (and (and (and (and (and (and (= x_99 0) (= x_97 (+ x_84 1))) ?v_5) ?v_6) (= x_101 x_100)) (= x_147 1)) (= x_9 (store x_8 x_100 2))) (= x_94 (store x_81 x_84 x_100))) (and (and (and (and (and (and (and (and (and (= x_99 1) ?v_7) ?v_5) ?v_6) ?v_8) ?v_9) (= x_103 x_102)) (= x_148 2)) (= x_93 x_102)) (= x_9 (store x_8 x_102 3)))) (and (and (and (and (and (and (and (and (and (= x_99 2) ?v_7) (= x_95 (+ x_82 1))) ?v_6) ?v_8) ?v_9) (= x_105 x_104)) (= x_149 3)) (or (not (<= x_85 12)) (= x_93 x_104))) (= x_9 (store x_8 x_104 1)))) (and (and (and (and (and (= x_99 3) ?v_8) ?v_5) ?v_6) (= x_9 x_8)) ?v_9))) (= x_85 (+ x_72 1))) (= x_150 (select x_7 x_87))) (= x_151 (select x_7 x_89))) (= x_152 (select x_7 x_91))) (or (or (or (and (and (and (and (and (and (and (= x_86 0) (= x_84 (+ x_71 1))) ?v_10) ?v_11) (= x_88 x_87)) (= x_150 1)) (= x_8 (store x_7 x_87 2))) (= x_81 (store x_68 x_71 x_87))) (and (and (and (and (and (and (and (and (and (= x_86 1) ?v_12) ?v_10) ?v_11) ?v_13) ?v_14) (= x_90 x_89)) (= x_151 2)) (= x_80 x_89)) (= x_8 (store x_7 x_89 3)))) (and (and (and (and (and (and (and (and (and (= x_86 2) ?v_12) (= x_82 (+ x_69 1))) ?v_11) ?v_13) ?v_14) (= x_92 x_91)) (= x_152 3)) (or (not (<= x_72 12)) (= x_80 x_91))) (= x_8 (store x_7 x_91 1)))) (and (and (and (and (and (= x_86 3) ?v_13) ?v_10) ?v_11) (= x_8 x_7)) ?v_14))) (= x_72 (+ x_59 1))) (= x_153 (select x_6 x_74))) (= x_154 (select x_6 x_76))) (= x_155 (select x_6 x_78))) (or (or (or (and (and (and (and (and (and (and (= x_73 0) (= x_71 (+ x_58 1))) ?v_15) ?v_16) (= x_75 x_74)) (= x_153 1)) (= x_7 (store x_6 x_74 2))) (= x_68 (store x_55 x_58 x_74))) (and (and (and (and (and (and (and (and (and (= x_73 1) ?v_17) ?v_15) ?v_16) ?v_18) ?v_19) (= x_77 x_76)) (= x_154 2)) (= x_67 x_76)) (= x_7 (store x_6 x_76 3)))) (and (and (and (and (and (and (and (and (and (= x_73 2) ?v_17) (= x_69 (+ x_56 1))) ?v_16) ?v_18) ?v_19) (= x_79 x_78)) (= x_155 3)) (or (not (<= x_59 12)) (= x_67 x_78))) (= x_7 (store x_6 x_78 1)))) (and (and (and (and (and (= x_73 3) ?v_18) ?v_15) ?v_16) (= x_7 x_6)) ?v_19))) (= x_59 (+ x_46 1))) (= x_156 (select x_5 x_61))) (= x_157 (select x_5 x_63))) (= x_158 (select x_5 x_65))) (or (or (or (and (and (and (and (and (and (and (= x_60 0) (= x_58 (+ x_45 1))) ?v_20) ?v_21) (= x_62 x_61)) (= x_156 1)) (= x_6 (store x_5 x_61 2))) (= x_55 (store x_42 x_45 x_61))) (and (and (and (and (and (and (and (and (and (= x_60 1) ?v_22) ?v_20) ?v_21) ?v_23) ?v_24) (= x_64 x_63)) (= x_157 2)) (= x_54 x_63)) (= x_6 (store x_5 x_63 3)))) (and (and (and (and (and (and (and (and (and (= x_60 2) ?v_22) (= x_56 (+ x_43 1))) ?v_21) ?v_23) ?v_24) (= x_66 x_65)) (= x_158 3)) (or (not (<= x_46 12)) (= x_54 x_65))) (= x_6 (store x_5 x_65 1)))) (and (and (and (and (and (= x_60 3) ?v_23) ?v_20) ?v_21) (= x_6 x_5)) ?v_24))) (= x_46 (+ x_33 1))) (= x_159 (select x_4 x_48))) (= x_160 (select x_4 x_50))) (= x_161 (select x_4 x_52))) (or (or (or (and (and (and (and (and (and (and (= x_47 0) (= x_45 (+ x_32 1))) ?v_25) ?v_26) (= x_49 x_48)) (= x_159 1)) (= x_5 (store x_4 x_48 2))) (= x_42 (store x_29 x_32 x_48))) (and (and (and (and (and (and (and (and (and (= x_47 1) ?v_27) ?v_25) ?v_26) ?v_28) ?v_29) (= x_51 x_50)) (= x_160 2)) (= x_41 x_50)) (= x_5 (store x_4 x_50 3)))) (and (and (and (and (and (and (and (and (and (= x_47 2) ?v_27) (= x_43 (+ x_30 1))) ?v_26) ?v_28) ?v_29) (= x_53 x_52)) (= x_161 3)) (or (not (<= x_33 12)) (= x_41 x_52))) (= x_5 (store x_4 x_52 1)))) (and (and (and (and (and (= x_47 3) ?v_28) ?v_25) ?v_26) (= x_5 x_4)) ?v_29))) (= x_33 (+ x_19 1))) (= x_162 (select x_3 x_35))) (= x_163 (select x_3 x_37))) (= x_164 (select x_3 x_39))) (or (or (or (and (and (and (and (and (and (and (= x_34 0) (= x_32 (+ x_17 1))) ?v_30) ?v_31) (= x_36 x_35)) (= x_162 1)) (= x_4 (store x_3 x_35 2))) (= x_29 (store x_13 x_17 x_35))) (and (and (and (and (and (and (and (and (and (= x_34 1) ?v_32) ?v_30) ?v_31) ?v_33) ?v_34) (= x_38 x_37)) (= x_163 2)) (= x_28 x_37)) (= x_4 (store x_3 x_37 3)))) (and (and (and (and (and (and (and (and (and (= x_34 2) ?v_32) (= x_30 (+ x_14 1))) ?v_31) ?v_33) ?v_34) (= x_40 x_39)) (= x_164 3)) (or (not (<= x_19 12)) (= x_28 x_39))) (= x_4 (store x_3 x_39 1)))) (and (and (and (and (and (= x_34 3) ?v_33) ?v_30) ?v_31) (= x_4 x_3)) ?v_34))) (= x_19 (+ x_20 1))) (= x_165 (select x_0 x_22))) (= x_166 (select x_0 x_24))) (= x_167 (select x_0 x_26))) (or (or (or (and (and (and (and (and (and (and (= x_21 0) (= x_17 (+ x_18 1))) ?v_35) ?v_36) (= x_23 x_22)) (= x_165 1)) (= x_3 (store x_0 x_22 2))) (= x_13 (store x_10 x_18 x_22))) (and (and (and (and (and (and (and (and (and (= x_21 1) ?v_37) ?v_35) ?v_36) ?v_38) ?v_39) (= x_25 x_24)) (= x_166 2)) (= x_12 x_24)) (= x_3 (store x_0 x_24 3)))) (and (and (and (and (and (and (and (and (and (= x_21 2) ?v_37) (= x_14 (+ x_11 1))) ?v_36) ?v_38) ?v_39) (= x_27 x_26)) (= x_167 3)) (or (not (<= x_20 12)) (= x_12 x_26))) (= x_3 (store x_0 x_26 1)))) (and (and (and (and (and (= x_21 3) ?v_38) ?v_35) ?v_36) (= x_3 x_0)) ?v_39))) (= x_168 (select x_115 x_1))) (= x_168 3)) (= x_169 (select x_115 x_2))) (= x_169 3))))
; --- Injected Array Sum Constraint ---
(assert (sum x_115 (+ x_47 (+ x_111 x_153))))
(check-sat)
(exit)